
Gurobi 8.1.0 (win64, Python) logging started 12/05/18 16:16:04

Academic license - for non-commercial use only

Gurobi 8.1.0 (win64, Python) logging started 12/05/18 16:50:14

Academic license - for non-commercial use only

Gurobi 8.1.0 (win64, Python) logging started 12/05/18 17:20:04

Academic license - for non-commercial use only
